Traveling Salesman Problem/TSP_generados/Aleatorio1620391180_14.tsp
NAME: Aleatorio1620391180_14.tsp
COMMENT: Randomly generated scenario
TYPE: TSP
DIMENSION: 14
EDGE_WEIGHT_TYPE: ATT
NODE_COORD_SECTION
1 44.9 1.44
2 38.45 14.04
3 44.85 49.02
4 15.23 16.67
5 13.58 17.64
6 0.66 19.0
7 20.33 27.58
8 41.75 16.44
9 47.48 32.12
10 32.11 2.07
11 49.51 3.73
12 29.06 14.98
13 24.94 37.84
14 22.93 16.91
