Traveling Salesman Problem/TSP_generados/Aleatorio1620391180_14.opt.tour
NAME: Aleatorio1620391180_14.opt.tour
COMMENT: Optimal solution for Aleatorio1620391180_14 (168.79446398499118)
TYPE: TOUR
DIMENSION: 14
TOUR_SECTION
1 11 2 8 9 3 13 7 6 5 4 14 12 10
-1
EOF
